# Solution for model GasLib-11
# Objective value = 2.6116859188643502e+01
lambda[N01] 0
lambda[N02] 0
lambda[N03] 0
lambda[N04] 0
lambda[N05] 0
lambda[entry01] 4.3679169334661350e-01
lambda[entry03] 0
lambda[entry02] 3.5632113189064574e-01
lambda[exit01] 3.0358933987224712e-01
lambda[exit02] 5.3921937313771340e-01
lambda[exit03] 3.0882905970657004e-01
q[entry01,entry03] 1.9649712032129258e+01
q[N01,N02] 1.8161818367325846e+01
q[entry02,N03] 1.9650085445893897e+01
q[N02,exit01] 1.5185621338896835e+01
q[N02,N04] 2.9761970284290236e+00
q[N03,N04] 2.1137989110697308e+01
q[N05,exit02] 1.2057093069563166e+01
q[N05,exit03] 1.2057093069563166e+01
q[entry03,N01] 1.9649722032129258e+01
q[N04,N05] 2.4114186139126332e+01
q[N01,N03] 1.4879036648034103e+00
pi[N01] 5.8876800086286742e+01
pi[N02] 4.8596040377484066e+01
pi[N03] 5.8876785207250094e+01
pi[N04] 4.6911321046165440e+01
pi[N05] 4.6911079904304046e+01
pi[entry01] 70
pi[entry03] 5.8876996583507065e+01
pi[entry02] 70
pi[exit01] 40
pi[exit02] 40
pi[exit03] 40
x[entry01,entry03] 0
x[N01,N02] 0
x[entry02,N03] 0
x[N02,exit01] 0
x[N02,N04] 0
x[N03,N04] 0
x[N05,exit02] 0
x[N05,exit03] 0
x[entry03,N01] 0
x[N04,N05] 0
x[N01,N03] 0
delta_minus[entry01,entry03] 0
delta_minus[N01,N02] 0
delta_minus[entry02,N03] 0
delta_minus[N02,exit01] 0
delta_minus[N02,N04] 0
delta_minus[N03,N04] 0
delta_minus[N05,exit02] 0
delta_minus[N05,exit03] 0
delta_minus[entry03,N01] 0
delta_minus[N04,N05] 0
delta_minus[N01,N03] 0
delta_plus[entry01,entry03] 0
delta_plus[N01,N02] 0
delta_plus[entry02,N03] 0
delta_plus[N02,exit01] 0
delta_plus[N02,N04] 0
delta_plus[N03,N04] 0
delta_plus[N05,exit02] 0
delta_plus[N05,exit03] 0
delta_plus[entry03,N01] 0
delta_plus[N04,N05] 0
delta_plus[N01,N03] 0
epsilon_minus[entry01,entry03] 100000
epsilon_minus[N01,N02] 6.0539388846161324e-01
epsilon_minus[entry02,N03] 6.5500295306512535e-01
epsilon_minus[N02,exit01] 5.0618733020745421e-01
epsilon_minus[N02,N04] 9.9206558254158583e-02
epsilon_minus[N03,N04] 100000
epsilon_minus[N05,exit02] 4.0190306440218548e-01
epsilon_minus[N05,exit03] 4.0190306440218548e-01
epsilon_minus[entry03,N01] 100000
epsilon_minus[N04,N05] 8.0380612880437119e-01
epsilon_minus[N01,N03] 4.9596617485086814e-02
epsilon_plus[entry01,entry03] 9.9999345009494034e+04
epsilon_plus[N01,N02] 0
epsilon_plus[entry02,N03] 0
epsilon_plus[N02,exit01] 0
epsilon_plus[N02,N04] 0
epsilon_plus[N03,N04] 9.9999295400429430e+04
epsilon_plus[N05,exit02] 0
epsilon_plus[N05,exit03] 0
epsilon_plus[entry03,N01] 9.9999345009494034e+04
epsilon_plus[N04,N05] 0
epsilon_plus[N01,N03] 0
zeta_minus[N01] 0
zeta_minus[N02] 0
zeta_minus[N03] 0
zeta_minus[N04] 0
zeta_minus[N05] 0
zeta_minus[entry01] 0
zeta_minus[entry03] 0
zeta_minus[entry02] 0
zeta_minus[exit01] 5.0618733020745421e-01
zeta_minus[exit02] 4.0190306440218548e-01
zeta_minus[exit03] 4.0190306440218548e-01
zeta_plus[N01] 0
zeta_plus[N02] 0
zeta_plus[N03] 0
zeta_plus[N04] 0
zeta_plus[N05] 0
zeta_plus[entry01] 6.5499050594670016e-01
zeta_plus[entry03] 0
zeta_plus[entry02] 6.5500295306512535e-01
zeta_plus[exit01] 0
zeta_plus[exit02] 0
zeta_plus[exit03] 0
mu_minus[exit01] 0
mu_minus[exit02] 0
mu_minus[exit03] 0
minus_plus[exit01] 0
minus_plus[exit02] 0
minus_plus[exit03] 0
eta_minus[entry01] 0
eta_minus[entry03] 3.7073805815533078e-06
eta_minus[entry02] 0
eta_plus[entry01] 0
eta_plus[entry03] 0
eta_plus[entry02] 0
alpha[N01] -3.7077338982124342e-01
alpha[N02] -7.1346534778337689e-01
alpha[N03] -3.7077388578741827e-01
alpha[N04] -0.769622653528887
alpha[N05] -7.6963069159017516e-01
alpha[entry01] 0
alpha[entry03] -3.7076683991618392e-01
alpha[entry02] 0
alpha[exit01] -1
alpha[exit02] -1
alpha[exit03] -1
binary_var_for__dual_flow_var_at_arcs_lower[entry01,entry03] 0
binary_var_for__dual_flow_var_at_arcs_lower[N01,N02] 0
binary_var_for__dual_flow_var_at_arcs_lower[entry02,N03] 0
binary_var_for__dual_flow_var_at_arcs_lower[N02,exit01] 0
binary_var_for__dual_flow_var_at_arcs_lower[N02,N04] 0
binary_var_for__dual_flow_var_at_arcs_lower[N03,N04] 0
binary_var_for__dual_flow_var_at_arcs_lower[N05,exit02] 0
binary_var_for__dual_flow_var_at_arcs_lower[N05,exit03] 0
binary_var_for__dual_flow_var_at_arcs_lower[entry03,N01] 0
binary_var_for__dual_flow_var_at_arcs_lower[N04,N05] 0
binary_var_for__dual_flow_var_at_arcs_lower[N01,N03] 0
binary_var_for__dual_flow_var_at_arcs_upper[entry01,entry03] 0
binary_var_for__dual_flow_var_at_arcs_upper[N01,N02] 0
binary_var_for__dual_flow_var_at_arcs_upper[entry02,N03] 0
binary_var_for__dual_flow_var_at_arcs_upper[N02,exit01] 0
binary_var_for__dual_flow_var_at_arcs_upper[N02,N04] 0
binary_var_for__dual_flow_var_at_arcs_upper[N03,N04] 0
binary_var_for__dual_flow_var_at_arcs_upper[N05,exit02] 0
binary_var_for__dual_flow_var_at_arcs_upper[N05,exit03] 0
binary_var_for__dual_flow_var_at_arcs_upper[entry03,N01] 0
binary_var_for__dual_flow_var_at_arcs_upper[N04,N05] 0
binary_var_for__dual_flow_var_at_arcs_upper[N01,N03] 0
binary_var_for__dual_PDAI_var_at_arcs_lower[entry01,entry03] 1
binary_var_for__dual_PDAI_var_at_arcs_lower[N01,N02] 1
binary_var_for__dual_PDAI_var_at_arcs_lower[entry02,N03] 1
binary_var_for__dual_PDAI_var_at_arcs_lower[N02,exit01] 1
binary_var_for__dual_PDAI_var_at_arcs_lower[N02,N04] 1
binary_var_for__dual_PDAI_var_at_arcs_lower[N03,N04] 1
binary_var_for__dual_PDAI_var_at_arcs_lower[N05,exit02] 1
binary_var_for__dual_PDAI_var_at_arcs_lower[N05,exit03] 1
binary_var_for__dual_PDAI_var_at_arcs_lower[entry03,N01] 1
binary_var_for__dual_PDAI_var_at_arcs_lower[N04,N05] 1
binary_var_for__dual_PDAI_var_at_arcs_lower[N01,N03] 1
binary_var_for__dual_PDAI_var_at_arcs_upper[entry01,entry03] 1
binary_var_for__dual_PDAI_var_at_arcs_upper[N01,N02] 1
binary_var_for__dual_PDAI_var_at_arcs_upper[entry02,N03] 1
binary_var_for__dual_PDAI_var_at_arcs_upper[N02,exit01] 1
binary_var_for__dual_PDAI_var_at_arcs_upper[N02,N04] 1
binary_var_for__dual_PDAI_var_at_arcs_upper[N03,N04] 1
binary_var_for__dual_PDAI_var_at_arcs_upper[N05,exit02] 1
binary_var_for__dual_PDAI_var_at_arcs_upper[N05,exit03] 1
binary_var_for__dual_PDAI_var_at_arcs_upper[entry03,N01] 1
binary_var_for__dual_PDAI_var_at_arcs_upper[N04,N05] 1
binary_var_for__dual_PDAI_var_at_arcs_upper[N01,N03] 1
binary_var_for__dual_pressure_var_at_nodes_lower[N01] 0
binary_var_for__dual_pressure_var_at_nodes_lower[N02] 0
binary_var_for__dual_pressure_var_at_nodes_lower[N03] 0
binary_var_for__dual_pressure_var_at_nodes_lower[N04] 0
binary_var_for__dual_pressure_var_at_nodes_lower[N05] 0
binary_var_for__dual_pressure_var_at_nodes_lower[entry01] 0
binary_var_for__dual_pressure_var_at_nodes_lower[entry03] 0
binary_var_for__dual_pressure_var_at_nodes_lower[entry02] 0
binary_var_for__dual_pressure_var_at_nodes_lower[exit01] 1
binary_var_for__dual_pressure_var_at_nodes_lower[exit02] 1
binary_var_for__dual_pressure_var_at_nodes_lower[exit03] 1
binary_var_for__dual_pressure_var_at_nodes_upper[N01] 0
binary_var_for__dual_pressure_var_at_nodes_upper[N02] 0
binary_var_for__dual_pressure_var_at_nodes_upper[N03] 0
binary_var_for__dual_pressure_var_at_nodes_upper[N04] 0
binary_var_for__dual_pressure_var_at_nodes_upper[N05] 0
binary_var_for__dual_pressure_var_at_nodes_upper[entry01] 1
binary_var_for__dual_pressure_var_at_nodes_upper[entry03] 0
binary_var_for__dual_pressure_var_at_nodes_upper[entry02] 1
binary_var_for__dual_pressure_var_at_nodes_upper[exit01] 0
binary_var_for__dual_pressure_var_at_nodes_upper[exit02] 0
binary_var_for__dual_pressure_var_at_nodes_upper[exit03] 0
binary_var_for__dual_loadshed_var_at_exit_nodes_lower[exit01] 0
binary_var_for__dual_loadshed_var_at_exit_nodes_lower[exit02] 0
binary_var_for__dual_loadshed_var_at_exit_nodes_lower[exit03] 0
binary_var_for__dual_loadshed_var_at_exit_nodes_upper[exit01] 0
binary_var_for__dual_loadshed_var_at_exit_nodes_upper[exit02] 0
binary_var_for__dual_loadshed_var_at_exit_nodes_upper[exit03] 0
binary_var_for__dual_loadshed_var_at_entry_nodes_lower[entry01] 0
binary_var_for__dual_loadshed_var_at_entry_nodes_lower[entry03] 1
binary_var_for__dual_loadshed_var_at_entry_nodes_lower[entry02] 0
binary_var_for__dual_loadshed_var_at_entry_nodes_upper[entry01] 0
binary_var_for__dual_loadshed_var_at_entry_nodes_upper[entry03] 0
binary_var_for__dual_loadshed_var_at_entry_nodes_upper[entry02] 0
f[entry01,entry03] 10
f[N01,N02] 8
f[entry02,N03] -1
f[N02,exit01] 1
f[N02,N04] 6
f[N03,N04] -2
f[N05,exit02] 1
f[N05,exit03] 1
f[entry03,N01] 9
f[N04,N05] 3
f[N01,N03] 0
